15 56
1 3 18
1 5 64
1 9 76
1 11 7
1 13 65
1 15 94
2 3 85
2 6 5
2 10 54
2 11 11
2 12 66
2 13 9
3 4 38
3 7 63
3 8 27
3 11 38
3 13 49
4 5 47
4 8 74
4 9 49
4 11 77
4 13 71
5 6 71
5 8 21
5 10 53
5 12 50
5 13 85
5 14 25
5 15 54
6 7 62
6 8 88
6 11 62
7 8 45
7 9 28
7 10 45
7 11 76
7 12 89
7 13 24
7 14 20
7 15 46
8 10 1
8 11 79
8 12 32
8 14 23
8 15 70
9 11 80
9 13 31
9 14 52
9 15 24
10 13 4
11 13 44
11 15 38
12 13 19
12 15 59
13 14 81
13 15 80
